38
1 1 2
2 1 5
3 1 8
4 2 5
5 2 7
6 2 3
7 3 6
8 3 4
9 4 11
10 5 8
11 5 9
12 5 7
13 6 7
14 6 10
15 6 11
16 7 9
17 7 10
18 8 18
19 8 13
20 8 9
21 9 13
22 9 12
23 9 10
24 10 11
25 10 14
26 10 12
27 11 14
28 11 15
29 12 13
30 12 14
31 12 16
32 13 18
33 13 17
34 14 16
35 14 15
36 15 16
37 16 17
38 17 18